; benchmark generated from python API
(set-info :status unknown)
(declare-fun x_epoch () Int)
(declare-fun x_plus_epoch () Int)
(declare-fun x_plus_month () Int)
(declare-fun x_plus_year () Int)
(declare-fun x_plus_day () Int)
(declare-fun x_plus_1_epoch () Int)
(assert
 (>= x_epoch (- 36584)))
(assert
 (<= x_epoch 36829))
(assert
 (>= x_epoch 7214))
(assert
 (<= x_epoch 7304))
(assert
 (>= x_plus_epoch (- 36584)))
(assert
 (<= x_plus_epoch 36829))
(assert
 (let (($x747 (= x_plus_month 11)))
 (let (($x953 (= x_plus_month 9)))
 (let (($x481 (= x_plus_month 6)))
 (let (($x900 (= x_plus_month 4)))
 (let ((?x1822 (ite (or $x900 $x481 $x953 $x747) 30 31)))
 (let (($x692 (= (mod x_plus_year 400) 0)))
 (let (($x2657 (= (mod x_plus_year 4) 0)))
 (let (($x458 (or (and $x2657 (and (distinct (mod x_plus_year 100) 0) true)) $x692)))
 (let (($x1888 (= x_plus_month 2)))
 (let (($x320 (>= x_plus_day 1)))
 (let (($x2393 (<= x_plus_month 12)))
 (let (($x737 (>= x_plus_month 1)))
 (let (($x507 (<= x_plus_year 2100)))
 (let (($x674 (>= x_plus_year 1900)))
 (and $x674 $x507 $x737 $x2393 $x320 (<= x_plus_day (ite $x1888 (ite $x458 29 28) ?x1822))))))))))))))))))
(assert
 (let (($x692 (= (mod x_plus_year 400) 0)))
 (let (($x2657 (= (mod x_plus_year 4) 0)))
 (let (($x458 (or (and $x2657 (and (distinct (mod x_plus_year 100) 0) true)) $x692)))
 (let (($x237 (= 2 x_plus_month)))
 (let ((?x533 (ite $x237 (ite $x458 31 31) (ite (= 1 x_plus_month) (ite $x458 0 0) 0))))
 (let (($x662 (= 3 x_plus_month)))
 (let (($x343 (= 4 x_plus_month)))
 (let ((?x740 (ite $x343 (ite $x458 91 90) (ite $x662 (ite $x458 60 59) ?x533))))
 (let (($x851 (= 5 x_plus_month)))
 (let (($x606 (= 6 x_plus_month)))
 (let ((?x522 (ite $x606 (ite $x458 152 151) (ite $x851 (ite $x458 121 120) ?x740))))
 (let (($x3129 (= 7 x_plus_month)))
 (let (($x390 (= 8 x_plus_month)))
 (let ((?x425 (ite $x390 (ite $x458 213 212) (ite $x3129 (ite $x458 182 181) ?x522))))
 (let (($x469 (= 9 x_plus_month)))
 (let (($x544 (= 10 x_plus_month)))
 (let ((?x889 (ite $x544 (ite $x458 274 273) (ite $x469 (ite $x458 244 243) ?x425))))
 (let (($x955 (= 11 x_plus_month)))
 (let (($x516 (= 12 x_plus_month)))
 (let ((?x917 (ite $x516 (ite $x458 335 334) (ite $x955 (ite $x458 305 304) ?x889))))
 (let ((?x700 (+ (* 365 (- x_plus_year 1)) (div (- x_plus_year 1) 4))))
 (let ((?x350 (+ (- ?x700 (div (- x_plus_year 1) 100)) (div (- x_plus_year 1) 400))))
 (= x_plus_epoch (- (+ (+ ?x350 ?x917) (- x_plus_day 1)) 730179)))))))))))))))))))))))))
(assert
 (let ((?x638 (+ x_epoch 730179)))
 (let ((?x468 (mod ?x638 146097)))
 (let ((?x413 (div ?x468 36524)))
 (let ((?x311 (ite (<= 4 ?x413) 3 ?x413)))
 (let ((?x664 (- ?x468 (* ?x311 36524))))
 (let ((?x2143 (mod ?x664 1461)))
 (let ((?x2906 (div ?x2143 365)))
 (let ((?x1133 (ite (<= 4 ?x2906) 3 ?x2906)))
 (let ((?x2783 (+ (+ (* (div ?x638 146097) 400) (* ?x311 100)) (* (div ?x664 1461) 4))))
 (let ((?x3207 (+ (+ ?x2783 ?x1133) 1)))
 (let (($x1815 (or (and (= (mod ?x3207 4) 0) (and (distinct (mod ?x3207 100) 0) true)) (= (mod ?x3207 400) 0))))
 (let ((?x2592 (- ?x2143 (* ?x1133 365))))
 (let ((?x859 (ite $x1815 31 31)))
 (let (($x483 (>= ?x2592 ?x859)))
 (let ((?x2766 (ite $x483 (+ (- ?x2592 ?x859) 1) (+ (- ?x2592 (ite $x1815 0 0)) 1))))
 (let ((?x3066 (ite $x1815 60 59)))
 (let (($x466 (>= ?x2592 ?x3066)))
 (let ((?x3014 (ite $x1815 91 90)))
 (let (($x708 (>= ?x2592 ?x3014)))
 (let ((?x224 (ite $x708 (+ (- ?x2592 ?x3014) 1) (ite $x466 (+ (- ?x2592 ?x3066) 1) ?x2766))))
 (let ((?x1820 (ite $x1815 121 120)))
 (let (($x1341 (>= ?x2592 ?x1820)))
 (let ((?x673 (ite $x1815 152 151)))
 (let (($x211 (>= ?x2592 ?x673)))
 (let ((?x2239 (ite $x211 (+ (- ?x2592 ?x673) 1) (ite $x1341 (+ (- ?x2592 ?x1820) 1) ?x224))))
 (let ((?x1178 (ite $x1815 182 181)))
 (let (($x788 (>= ?x2592 ?x1178)))
 (let ((?x679 (ite $x1815 213 212)))
 (let (($x577 (>= ?x2592 ?x679)))
 (let ((?x2109 (ite $x577 (+ (- ?x2592 ?x679) 1) (ite $x788 (+ (- ?x2592 ?x1178) 1) ?x2239))))
 (let ((?x604 (ite $x1815 244 243)))
 (let (($x1589 (>= ?x2592 ?x604)))
 (let ((?x2532 (ite $x1815 274 273)))
 (let (($x325 (>= ?x2592 ?x2532)))
 (let ((?x235 (ite $x325 (+ (- ?x2592 ?x2532) 1) (ite $x1589 (+ (- ?x2592 ?x604) 1) ?x2109))))
 (let ((?x248 (ite $x1815 305 304)))
 (let (($x1853 (>= ?x2592 ?x248)))
 (let ((?x318 (ite $x1815 335 334)))
 (let (($x3178 (>= ?x2592 ?x318)))
 (let ((?x824 (ite $x3178 (+ (- ?x2592 ?x318) 1) (ite $x1853 (+ (- ?x2592 ?x248) 1) ?x235))))
 (let ((?x409 (+ (* 1 12) 0)))
 (let ((?x362 (ite $x1341 5 (ite $x708 4 (ite $x466 3 (ite $x483 2 1))))))
 (let ((?x610 (ite $x1589 9 (ite $x577 8 (ite $x788 7 (ite $x211 6 ?x362))))))
 (let ((?x2069 (ite $x3178 12 (ite $x1853 11 (ite $x325 10 ?x610)))))
 (let ((?x272 (+ ?x2069 ?x409)))
 (let ((?x518 (- ?x272 1)))
 (let ((?x327 (+ (mod ?x518 12) 1)))
 (let ((?x2963 (ite (or (= ?x327 4) (= ?x327 6) (= ?x327 9) (= ?x327 11)) 30 31)))
 (let (($x1532 (and (= (mod (+ ?x3207 (+ 0 (div ?x518 12))) 4) 0) (and (distinct (mod (+ ?x3207 (+ 0 (div ?x518 12))) 100) 0) true))))
 (let (($x711 (or $x1532 (= (mod (+ ?x3207 (+ 0 (div ?x518 12))) 400) 0))))
 (let ((?x2929 (ite (= ?x327 2) (ite $x711 29 28) ?x2963)))
 (let (($x312 (> 1 ?x824)))
 (let ((?x1356 (ite $x312 1 (ite (> ?x824 ?x2929) ?x2929 ?x824))))
 (let ((?x279 (ite (> 1 ?x1356) 1 (ite (> ?x1356 ?x2929) ?x2929 ?x1356))))
 (let ((?x1783 (ite (= 2 ?x327) (ite $x711 31 31) (ite (= 1 ?x327) (ite $x711 0 0) 0))))
 (let ((?x1658 (ite (= 4 ?x327) (ite $x711 91 90) (ite (= 3 ?x327) (ite $x711 60 59) ?x1783))))
 (let ((?x3281 (ite (= 6 ?x327) (ite $x711 152 151) (ite (= 5 ?x327) (ite $x711 121 120) ?x1658))))
 (let ((?x1668 (ite (= 8 ?x327) (ite $x711 213 212) (ite (= 7 ?x327) (ite $x711 182 181) ?x3281))))
 (let ((?x1484 (ite (= 10 ?x327) (ite $x711 274 273) (ite (= 9 ?x327) (ite $x711 244 243) ?x1668))))
 (let ((?x2397 (ite (= 12 ?x327) (ite $x711 335 334) (ite (= 11 ?x327) (ite $x711 305 304) ?x1484))))
 (let ((?x1610 (+ (* 365 (- (+ ?x3207 (+ 0 (div ?x518 12))) 1)) (div (- (+ ?x3207 (+ 0 (div ?x518 12))) 1) 4))))
 (let ((?x885 (+ (- ?x1610 (div (- (+ ?x3207 (+ 0 (div ?x518 12))) 1) 100)) (div (- (+ ?x3207 (+ 0 (div ?x518 12))) 1) 400))))
 (let ((?x1495 (+ (+ (- (+ (+ ?x885 ?x2397) (- ?x279 1)) 730179) 0) 730179)))
 (let ((?x1621 (mod ?x1495 146097)))
 (let ((?x1602 (div ?x1621 36524)))
 (let ((?x1593 (ite (<= 4 ?x1602) 3 ?x1602)))
 (let ((?x2505 (- ?x1621 (* ?x1593 36524))))
 (let ((?x2538 (mod ?x2505 1461)))
 (let ((?x1249 (div ?x2538 365)))
 (let ((?x2188 (ite (<= 4 ?x1249) 3 ?x1249)))
 (let ((?x3321 (+ (+ (* (div ?x1495 146097) 400) (* ?x1593 100)) (* (div ?x2505 1461) 4))))
 (let ((?x2983 (+ (+ ?x3321 ?x2188) 1)))
 (let ((?x866 (+ 0 (div ?x518 12))))
 (let ((?x580 (+ ?x3207 ?x866)))
 (let (($x3530 (= 0 0)))
 (let ((?x3574 (ite $x3530 ?x580 ?x2983)))
 (= x_plus_year ?x3574))))))))))))))))))))))))))))))))))))))))))))))))))))))))))))))))))))))))))))))
(assert
 (let ((?x638 (+ x_epoch 730179)))
 (let ((?x468 (mod ?x638 146097)))
 (let ((?x413 (div ?x468 36524)))
 (let ((?x311 (ite (<= 4 ?x413) 3 ?x413)))
 (let ((?x664 (- ?x468 (* ?x311 36524))))
 (let ((?x2143 (mod ?x664 1461)))
 (let ((?x2906 (div ?x2143 365)))
 (let ((?x1133 (ite (<= 4 ?x2906) 3 ?x2906)))
 (let ((?x2783 (+ (+ (* (div ?x638 146097) 400) (* ?x311 100)) (* (div ?x664 1461) 4))))
 (let ((?x3207 (+ (+ ?x2783 ?x1133) 1)))
 (let (($x1815 (or (and (= (mod ?x3207 4) 0) (and (distinct (mod ?x3207 100) 0) true)) (= (mod ?x3207 400) 0))))
 (let ((?x2592 (- ?x2143 (* ?x1133 365))))
 (let ((?x859 (ite $x1815 31 31)))
 (let (($x483 (>= ?x2592 ?x859)))
 (let ((?x2766 (ite $x483 (+ (- ?x2592 ?x859) 1) (+ (- ?x2592 (ite $x1815 0 0)) 1))))
 (let ((?x3066 (ite $x1815 60 59)))
 (let (($x466 (>= ?x2592 ?x3066)))
 (let ((?x3014 (ite $x1815 91 90)))
 (let (($x708 (>= ?x2592 ?x3014)))
 (let ((?x224 (ite $x708 (+ (- ?x2592 ?x3014) 1) (ite $x466 (+ (- ?x2592 ?x3066) 1) ?x2766))))
 (let ((?x1820 (ite $x1815 121 120)))
 (let (($x1341 (>= ?x2592 ?x1820)))
 (let ((?x673 (ite $x1815 152 151)))
 (let (($x211 (>= ?x2592 ?x673)))
 (let ((?x2239 (ite $x211 (+ (- ?x2592 ?x673) 1) (ite $x1341 (+ (- ?x2592 ?x1820) 1) ?x224))))
 (let ((?x1178 (ite $x1815 182 181)))
 (let (($x788 (>= ?x2592 ?x1178)))
 (let ((?x679 (ite $x1815 213 212)))
 (let (($x577 (>= ?x2592 ?x679)))
 (let ((?x2109 (ite $x577 (+ (- ?x2592 ?x679) 1) (ite $x788 (+ (- ?x2592 ?x1178) 1) ?x2239))))
 (let ((?x604 (ite $x1815 244 243)))
 (let (($x1589 (>= ?x2592 ?x604)))
 (let ((?x2532 (ite $x1815 274 273)))
 (let (($x325 (>= ?x2592 ?x2532)))
 (let ((?x235 (ite $x325 (+ (- ?x2592 ?x2532) 1) (ite $x1589 (+ (- ?x2592 ?x604) 1) ?x2109))))
 (let ((?x248 (ite $x1815 305 304)))
 (let (($x1853 (>= ?x2592 ?x248)))
 (let ((?x318 (ite $x1815 335 334)))
 (let (($x3178 (>= ?x2592 ?x318)))
 (let ((?x824 (ite $x3178 (+ (- ?x2592 ?x318) 1) (ite $x1853 (+ (- ?x2592 ?x248) 1) ?x235))))
 (let ((?x409 (+ (* 1 12) 0)))
 (let ((?x362 (ite $x1341 5 (ite $x708 4 (ite $x466 3 (ite $x483 2 1))))))
 (let ((?x610 (ite $x1589 9 (ite $x577 8 (ite $x788 7 (ite $x211 6 ?x362))))))
 (let ((?x2069 (ite $x3178 12 (ite $x1853 11 (ite $x325 10 ?x610)))))
 (let ((?x272 (+ ?x2069 ?x409)))
 (let ((?x518 (- ?x272 1)))
 (let ((?x327 (+ (mod ?x518 12) 1)))
 (let ((?x2963 (ite (or (= ?x327 4) (= ?x327 6) (= ?x327 9) (= ?x327 11)) 30 31)))
 (let (($x1532 (and (= (mod (+ ?x3207 (+ 0 (div ?x518 12))) 4) 0) (and (distinct (mod (+ ?x3207 (+ 0 (div ?x518 12))) 100) 0) true))))
 (let (($x711 (or $x1532 (= (mod (+ ?x3207 (+ 0 (div ?x518 12))) 400) 0))))
 (let ((?x2929 (ite (= ?x327 2) (ite $x711 29 28) ?x2963)))
 (let (($x312 (> 1 ?x824)))
 (let ((?x1356 (ite $x312 1 (ite (> ?x824 ?x2929) ?x2929 ?x824))))
 (let ((?x279 (ite (> 1 ?x1356) 1 (ite (> ?x1356 ?x2929) ?x2929 ?x1356))))
 (let ((?x1783 (ite (= 2 ?x327) (ite $x711 31 31) (ite (= 1 ?x327) (ite $x711 0 0) 0))))
 (let ((?x1658 (ite (= 4 ?x327) (ite $x711 91 90) (ite (= 3 ?x327) (ite $x711 60 59) ?x1783))))
 (let ((?x3281 (ite (= 6 ?x327) (ite $x711 152 151) (ite (= 5 ?x327) (ite $x711 121 120) ?x1658))))
 (let ((?x1668 (ite (= 8 ?x327) (ite $x711 213 212) (ite (= 7 ?x327) (ite $x711 182 181) ?x3281))))
 (let ((?x1484 (ite (= 10 ?x327) (ite $x711 274 273) (ite (= 9 ?x327) (ite $x711 244 243) ?x1668))))
 (let ((?x2397 (ite (= 12 ?x327) (ite $x711 335 334) (ite (= 11 ?x327) (ite $x711 305 304) ?x1484))))
 (let ((?x1610 (+ (* 365 (- (+ ?x3207 (+ 0 (div ?x518 12))) 1)) (div (- (+ ?x3207 (+ 0 (div ?x518 12))) 1) 4))))
 (let ((?x885 (+ (- ?x1610 (div (- (+ ?x3207 (+ 0 (div ?x518 12))) 1) 100)) (div (- (+ ?x3207 (+ 0 (div ?x518 12))) 1) 400))))
 (let ((?x1495 (+ (+ (- (+ (+ ?x885 ?x2397) (- ?x279 1)) 730179) 0) 730179)))
 (let ((?x1621 (mod ?x1495 146097)))
 (let ((?x1602 (div ?x1621 36524)))
 (let ((?x1593 (ite (<= 4 ?x1602) 3 ?x1602)))
 (let ((?x2505 (- ?x1621 (* ?x1593 36524))))
 (let ((?x2538 (mod ?x2505 1461)))
 (let ((?x1249 (div ?x2538 365)))
 (let ((?x2188 (ite (<= 4 ?x1249) 3 ?x1249)))
 (let ((?x3321 (+ (+ (* (div ?x1495 146097) 400) (* ?x1593 100)) (* (div ?x2505 1461) 4))))
 (let ((?x2983 (+ (+ ?x3321 ?x2188) 1)))
 (let (($x2568 (or (and (= (mod ?x2983 4) 0) (and (distinct (mod ?x2983 100) 0) true)) (= (mod ?x2983 400) 0))))
 (let ((?x3048 (ite $x2568 31 31)))
 (let ((?x1946 (- ?x2538 (* ?x2188 365))))
 (let (($x3626 (>= ?x1946 ?x3048)))
 (let ((?x1013 (ite $x2568 60 59)))
 (let (($x3628 (>= ?x1946 ?x1013)))
 (let ((?x3046 (ite $x2568 91 90)))
 (let (($x3071 (>= ?x1946 ?x3046)))
 (let ((?x1837 (ite $x2568 121 120)))
 (let (($x2079 (>= ?x1946 ?x1837)))
 (let ((?x3613 (ite $x2079 5 (ite $x3071 4 (ite $x3628 3 (ite $x3626 2 1))))))
 (let ((?x2849 (ite $x2568 152 151)))
 (let (($x3612 (>= ?x1946 ?x2849)))
 (let ((?x2940 (ite $x2568 182 181)))
 (let (($x3611 (>= ?x1946 ?x2940)))
 (let ((?x3511 (ite $x2568 213 212)))
 (let (($x1457 (>= ?x1946 ?x3511)))
 (let ((?x3624 (ite $x2568 244 243)))
 (let (($x1169 (>= ?x1946 ?x3624)))
 (let ((?x2086 (ite $x1169 9 (ite $x1457 8 (ite $x3611 7 (ite $x3612 6 ?x3613))))))
 (let ((?x3622 (ite $x2568 274 273)))
 (let (($x3004 (>= ?x1946 ?x3622)))
 (let ((?x3625 (ite $x2568 305 304)))
 (let (($x1933 (>= ?x1946 ?x3625)))
 (let ((?x3623 (ite $x2568 335 334)))
 (let (($x1285 (>= ?x1946 ?x3623)))
 (let (($x3530 (= 0 0)))
 (let ((?x3346 (ite $x3530 ?x327 (ite $x1285 12 (ite $x1933 11 (ite $x3004 10 ?x2086))))))
 (= x_plus_month ?x3346))))))))))))))))))))))))))))))))))))))))))))))))))))))))))))))))))))))))))))))))))))))))))))))))))))))
(assert
 (let ((?x638 (+ x_epoch 730179)))
 (let ((?x468 (mod ?x638 146097)))
 (let ((?x413 (div ?x468 36524)))
 (let ((?x311 (ite (<= 4 ?x413) 3 ?x413)))
 (let ((?x664 (- ?x468 (* ?x311 36524))))
 (let ((?x2143 (mod ?x664 1461)))
 (let ((?x2906 (div ?x2143 365)))
 (let ((?x1133 (ite (<= 4 ?x2906) 3 ?x2906)))
 (let ((?x2783 (+ (+ (* (div ?x638 146097) 400) (* ?x311 100)) (* (div ?x664 1461) 4))))
 (let ((?x3207 (+ (+ ?x2783 ?x1133) 1)))
 (let (($x1815 (or (and (= (mod ?x3207 4) 0) (and (distinct (mod ?x3207 100) 0) true)) (= (mod ?x3207 400) 0))))
 (let ((?x2592 (- ?x2143 (* ?x1133 365))))
 (let ((?x859 (ite $x1815 31 31)))
 (let (($x483 (>= ?x2592 ?x859)))
 (let ((?x2766 (ite $x483 (+ (- ?x2592 ?x859) 1) (+ (- ?x2592 (ite $x1815 0 0)) 1))))
 (let ((?x3066 (ite $x1815 60 59)))
 (let (($x466 (>= ?x2592 ?x3066)))
 (let ((?x3014 (ite $x1815 91 90)))
 (let (($x708 (>= ?x2592 ?x3014)))
 (let ((?x224 (ite $x708 (+ (- ?x2592 ?x3014) 1) (ite $x466 (+ (- ?x2592 ?x3066) 1) ?x2766))))
 (let ((?x1820 (ite $x1815 121 120)))
 (let (($x1341 (>= ?x2592 ?x1820)))
 (let ((?x673 (ite $x1815 152 151)))
 (let (($x211 (>= ?x2592 ?x673)))
 (let ((?x2239 (ite $x211 (+ (- ?x2592 ?x673) 1) (ite $x1341 (+ (- ?x2592 ?x1820) 1) ?x224))))
 (let ((?x1178 (ite $x1815 182 181)))
 (let (($x788 (>= ?x2592 ?x1178)))
 (let ((?x679 (ite $x1815 213 212)))
 (let (($x577 (>= ?x2592 ?x679)))
 (let ((?x2109 (ite $x577 (+ (- ?x2592 ?x679) 1) (ite $x788 (+ (- ?x2592 ?x1178) 1) ?x2239))))
 (let ((?x604 (ite $x1815 244 243)))
 (let (($x1589 (>= ?x2592 ?x604)))
 (let ((?x2532 (ite $x1815 274 273)))
 (let (($x325 (>= ?x2592 ?x2532)))
 (let ((?x235 (ite $x325 (+ (- ?x2592 ?x2532) 1) (ite $x1589 (+ (- ?x2592 ?x604) 1) ?x2109))))
 (let ((?x248 (ite $x1815 305 304)))
 (let (($x1853 (>= ?x2592 ?x248)))
 (let ((?x318 (ite $x1815 335 334)))
 (let (($x3178 (>= ?x2592 ?x318)))
 (let ((?x824 (ite $x3178 (+ (- ?x2592 ?x318) 1) (ite $x1853 (+ (- ?x2592 ?x248) 1) ?x235))))
 (let ((?x409 (+ (* 1 12) 0)))
 (let ((?x362 (ite $x1341 5 (ite $x708 4 (ite $x466 3 (ite $x483 2 1))))))
 (let ((?x610 (ite $x1589 9 (ite $x577 8 (ite $x788 7 (ite $x211 6 ?x362))))))
 (let ((?x2069 (ite $x3178 12 (ite $x1853 11 (ite $x325 10 ?x610)))))
 (let ((?x272 (+ ?x2069 ?x409)))
 (let ((?x518 (- ?x272 1)))
 (let ((?x327 (+ (mod ?x518 12) 1)))
 (let ((?x2963 (ite (or (= ?x327 4) (= ?x327 6) (= ?x327 9) (= ?x327 11)) 30 31)))
 (let (($x1532 (and (= (mod (+ ?x3207 (+ 0 (div ?x518 12))) 4) 0) (and (distinct (mod (+ ?x3207 (+ 0 (div ?x518 12))) 100) 0) true))))
 (let (($x711 (or $x1532 (= (mod (+ ?x3207 (+ 0 (div ?x518 12))) 400) 0))))
 (let ((?x2929 (ite (= ?x327 2) (ite $x711 29 28) ?x2963)))
 (let (($x312 (> 1 ?x824)))
 (let ((?x1356 (ite $x312 1 (ite (> ?x824 ?x2929) ?x2929 ?x824))))
 (let ((?x279 (ite (> 1 ?x1356) 1 (ite (> ?x1356 ?x2929) ?x2929 ?x1356))))
 (let ((?x1783 (ite (= 2 ?x327) (ite $x711 31 31) (ite (= 1 ?x327) (ite $x711 0 0) 0))))
 (let ((?x1658 (ite (= 4 ?x327) (ite $x711 91 90) (ite (= 3 ?x327) (ite $x711 60 59) ?x1783))))
 (let ((?x3281 (ite (= 6 ?x327) (ite $x711 152 151) (ite (= 5 ?x327) (ite $x711 121 120) ?x1658))))
 (let ((?x1668 (ite (= 8 ?x327) (ite $x711 213 212) (ite (= 7 ?x327) (ite $x711 182 181) ?x3281))))
 (let ((?x1484 (ite (= 10 ?x327) (ite $x711 274 273) (ite (= 9 ?x327) (ite $x711 244 243) ?x1668))))
 (let ((?x2397 (ite (= 12 ?x327) (ite $x711 335 334) (ite (= 11 ?x327) (ite $x711 305 304) ?x1484))))
 (let ((?x1610 (+ (* 365 (- (+ ?x3207 (+ 0 (div ?x518 12))) 1)) (div (- (+ ?x3207 (+ 0 (div ?x518 12))) 1) 4))))
 (let ((?x885 (+ (- ?x1610 (div (- (+ ?x3207 (+ 0 (div ?x518 12))) 1) 100)) (div (- (+ ?x3207 (+ 0 (div ?x518 12))) 1) 400))))
 (let ((?x1495 (+ (+ (- (+ (+ ?x885 ?x2397) (- ?x279 1)) 730179) 0) 730179)))
 (let ((?x1621 (mod ?x1495 146097)))
 (let ((?x1602 (div ?x1621 36524)))
 (let ((?x1593 (ite (<= 4 ?x1602) 3 ?x1602)))
 (let ((?x2505 (- ?x1621 (* ?x1593 36524))))
 (let ((?x2538 (mod ?x2505 1461)))
 (let ((?x1249 (div ?x2538 365)))
 (let ((?x2188 (ite (<= 4 ?x1249) 3 ?x1249)))
 (let ((?x3321 (+ (+ (* (div ?x1495 146097) 400) (* ?x1593 100)) (* (div ?x2505 1461) 4))))
 (let ((?x2983 (+ (+ ?x3321 ?x2188) 1)))
 (let (($x2568 (or (and (= (mod ?x2983 4) 0) (and (distinct (mod ?x2983 100) 0) true)) (= (mod ?x2983 400) 0))))
 (let ((?x1946 (- ?x2538 (* ?x2188 365))))
 (let ((?x3048 (ite $x2568 31 31)))
 (let (($x3626 (>= ?x1946 ?x3048)))
 (let ((?x1014 (ite $x3626 (+ (- ?x1946 ?x3048) 1) (+ (- ?x1946 (ite $x2568 0 0)) 1))))
 (let ((?x1013 (ite $x2568 60 59)))
 (let (($x3628 (>= ?x1946 ?x1013)))
 (let ((?x3046 (ite $x2568 91 90)))
 (let (($x3071 (>= ?x1946 ?x3046)))
 (let ((?x3600 (ite $x3071 (+ (- ?x1946 ?x3046) 1) (ite $x3628 (+ (- ?x1946 ?x1013) 1) ?x1014))))
 (let ((?x1837 (ite $x2568 121 120)))
 (let (($x2079 (>= ?x1946 ?x1837)))
 (let ((?x2849 (ite $x2568 152 151)))
 (let (($x3612 (>= ?x1946 ?x2849)))
 (let ((?x3607 (ite $x3612 (+ (- ?x1946 ?x2849) 1) (ite $x2079 (+ (- ?x1946 ?x1837) 1) ?x3600))))
 (let ((?x2940 (ite $x2568 182 181)))
 (let (($x3611 (>= ?x1946 ?x2940)))
 (let ((?x3511 (ite $x2568 213 212)))
 (let (($x1457 (>= ?x1946 ?x3511)))
 (let ((?x1234 (ite $x1457 (+ (- ?x1946 ?x3511) 1) (ite $x3611 (+ (- ?x1946 ?x2940) 1) ?x3607))))
 (let ((?x3624 (ite $x2568 244 243)))
 (let (($x1169 (>= ?x1946 ?x3624)))
 (let ((?x3622 (ite $x2568 274 273)))
 (let (($x3004 (>= ?x1946 ?x3622)))
 (let ((?x3586 (ite $x3004 (+ (- ?x1946 ?x3622) 1) (ite $x1169 (+ (- ?x1946 ?x3624) 1) ?x1234))))
 (let ((?x3625 (ite $x2568 305 304)))
 (let (($x1933 (>= ?x1946 ?x3625)))
 (let ((?x3623 (ite $x2568 335 334)))
 (let (($x1285 (>= ?x1946 ?x3623)))
 (let ((?x3575 (ite $x1285 (+ (- ?x1946 ?x3623) 1) (ite $x1933 (+ (- ?x1946 ?x3625) 1) ?x3586))))
 (let (($x3530 (= 0 0)))
 (let ((?x3573 (ite $x3530 ?x279 ?x3575)))
 (= x_plus_day ?x3573))))))))))))))))))))))))))))))))))))))))))))))))))))))))))))))))))))))))))))))))))))))))))))))))))))))))))
(assert
 (>= x_plus_1_epoch (- 36584)))
(assert
 (<= x_plus_1_epoch 36829))
(assert
 (= x_plus_1_epoch (+ x_epoch 366)))
(assert
 (not (= x_plus_epoch x_plus_1_epoch)))
(check-sat)
